# REAX potential for high energy CHON systems
# .....

units		real
#dimension	3
#boundary	f f f
atom_style	charge
read_data	ATP.chrg

pair_style	reax/c NULL
pair_coeff	* * bio.ff C H N O P

neighbor	2 bin
neigh_modify	every 10 delay 0 check no

fix		1 all nve
fix             2 all qeq/reax 1 0.0 10.0 1e-6 reax/c
fix             3 all temp/berendsen 300.0 300.0 100.0

timestep	0.25

dump		1 all atom 30 dump.reax2.lammpstrj

run		30000
